30	3	3
5	8	8	40	29	47	
0	0	0	0	5	8	2	7	2	4	28	2	3	4	5	6	7	8	9	10	11	12	13	14	15	16	17	18	19	20	21	22	23	24	25	26	27	28	29
3	3	1	3	8	7	2	6	8	5	6	3	19	9	27	8	11
5	2	1	3	7	6	9	6	8	3	3	6	16	10
5	4	1	1	6	2	8	1	3	2	4	7	5	11	24
3	5	1	2	7	4	7	9	4	8	3	16	24	18
4	3	1	1	3	9	5	5	5	7	1	12
5	2	2	3	8	2	3	10	8	10	2	15	18
3	1	2	1	4	5	6	2	10	4	4	26	13	14	9
4	2	2	1	5	5	5	2	6	7	1	28
2	3	2	1	4	3	10	10	1	4	4	21	13	11	20
1	3	3	1	8	4	2	2	8	6	1	30
3	2	3	3	9	6	8	1	5	5	3	20	21	23
1	4	3	1	1	8	10	7	10	9	1	25
2	2	1	2	10	5	4	5	7	9	2	26	24
2	1	2	2	2	10	1	1	10	2	1	16
2	2	3	1	5	7	5	6	9	2	1	22
5	3	3	3	2	7	7	10	7	2	2	24	19
5	1	3	2	5	8	10	4	5	9	1	28
6	1	1	2	2	4	3	5	9	10	2	28	21
3	4	1	3	4	10	9	5	1	8	1	23
3	4	3	3	6	5	5	10	10	3	1	27
3	3	3	3	1	2	9	8	1	6	1	30
4	4	1	3	9	5	4	9	8	8	1	26
5	5	3	2	7	10	2	10	5	10	1	30
2	4	1	3	9	8	10	8	2	10	1	30
5	5	3	1	6	7	5	10	7	5	1	30
4	2	2	2	3	8	6	2	5	6	1	30
4	3	3	2	8	4	1	1	3	9	1	30
3	5	1	2	9	9	8	10	9	2	1	30
0	0	0	0	10	8	10	9	5	1	0
